label nloop
variable seed loop 1 1000

variable dampfac equal 10
variable spacing equal 10
variable sigma_atom equal 0.25 # Vary this
variable density equal 3/(4*PI)
variable volfac equal 4*PI/3
variable test equal ${density}*${volfac}
variable r3 equal ${sigma_atom}^3
variable pmass equal 4*PI*${sigma_atom}^3/3*${density}

######################### Setting the sytem ####################################
## Getting conversion factors and constructing the dielectric
# Neccessary quantities in lj units:
variable T equal 3      # The temperature in LJ units
#variable vcomp equal sqrt($T)
# Our length unit (set):
variable lengthunit equal 1e-9   # In SI
variable convert_energy_nanounits_to_ljunits equal 1e21
# Physical constants in SI:
variable kb equal 1.38064852e-23
variable T0 equal 310.0 # The temperature we want in K  # We will use this to find the energy unit, which we in turn will use to find the dielectric correction
# Converting
variable energyunit equal ${T0}/T*${kb}
variable energyunit_ljinnano equal 1.426670137333333 
variable conversionfactor equal 0.008818190747174473 
variable ljepsilon_standard equal 1.042
variable ljepsilon equal ${ljepsilon_standard}/${energyunit_ljinnano}
variable ljcutoff equal 1.122
variable ljsigma equal 1.0
variable atomcutoff equal 1.122*${sigma_atom}


## Set variables
variable dt equal 0.00045

# Setting system properties
units lj
dimension 3
boundary p p p
atom_style atomic
pair_style lj/cut ${ljcutoff}

# Making the atoms:
read_data data.bulkdiffusion_gridspacing${spacing}

pair_coeff 1 1 ${ljepsilon} ${ljsigma} ${ljcutoff}

############################ Prepare simulation #####################################

neighbor 1.0 bin

timestep ${dt}

group freeatom type 1

mass 1 ${pmass}

variable scalefac equal ${pmass}/${sigma_atom}
fix lgvfix all langevin $T $T ${dampfac} ${seed} scale 1 ${scalefac}
fix 1 all nve

velocity freeatom set 0 0 0 

############################ Run ##############################################
dump 1 freeatom custom 100 /Diffusion_bead_near_grid/Spacing${spacing}/damp${dampfac}_diffseedLgv/Pure_bulk/Sigma_bead_${sigma_atom}/seed${seed}.lammpstrj id type xu yu zu vx vy vz

run 200000

clear
next seed
jump SELF nloop
